Maximize
  - 3.4972601475088 edge_0_2_0_0 - 0.32057700400341 edge_0_3_0_0
   - 0.8158111989546 edge_0_4_0_0 - 1.7074570903149 edge_0_6_0_0
   - 2.3359746266987 edge_0_9_0_0 - 3.2093394223188 edge_0_15_0_0
   - 2.277563433328 edge_0_16_0_0 + 0.5008840449854139 edge_2_3_0_0
   + 0.9779421046668467 edge_2_4_0_0 + 0.0373677209255029 edge_2_5_0_0
   + 0.4053715277215308 edge_2_6_0_0 - 0.3057524895445201 edge_2_7_0_0
   + 0.1459472785076588 edge_2_9_0_0 - 0.2968965644174924 edge_2_10_0_0
   + 0.00792482620762445 edge_2_11_0_0 + 0.517564147861615 edge_2_12_0_0
   - 0.6348591718249642 edge_2_16_0_0 - 0.8599953644554773 edge_2_19_0_0
   - 0.9171839802019882 edge_2_21_0_0 + 0.2709829295051713 edge_2_22_0_0
   + 0.7395748595020362 edge_3_2_0_0 + 0.5142730690963681 edge_3_3_0_0
   + 1.910697653574605 edge_3_4_0_0 + 0.9125084443640449 edge_3_5_0_0
   + 2.951631538513949 edge_3_6_0_0 + 0.4433479182534871 edge_3_7_0_0
   + 0.2022176882836759 edge_3_8_0_0 + 2.376524874834101 edge_3_9_0_0
   + 1.821795018347207 edge_3_10_0_0 + 1.608934082772915 edge_3_11_0_0
   + 1.4671499281291 edge_3_12_0_0 - 0.0416956553915485 edge_3_13_0_0
   + 0.2422120236405854 edge_3_14_0_0 + 0.661282425713602 edge_3_15_0_0
   + 1.304335967715734 edge_3_16_0_0 - 0.3592381898424162 edge_3_17_0_0
   - 0.5316294836926657 edge_3_18_0_0 + 0.5409916065021734 edge_3_19_0_0
   - 0.1473977833426386 edge_3_21_0_0 + 2.99897147479132 edge_3_22_0_0
   + 1.575361668029757 edge_4_2_0_0 + 2.455441627949809 edge_4_3_0_0
   + 0.7087012867776805 edge_4_5_0_0 + 2.016934481428228 edge_4_6_0_0
   + 0.2023242156266989 edge_4_7_0_0 + 0.3201408512665888 edge_4_8_0_0
   + 2.064480852182838 edge_4_9_0_0 + 1.895597622000257 edge_4_10_0_0
   + 1.219165951905658 edge_4_11_0_0 + 1.0012384883853 edge_4_12_0_0
   - 0.4897129142345577 edge_4_13_0_0 + 0.5306641507988556 edge_4_15_0_0
   + 1.667217299876083 edge_4_16_0_0 - 1.244465458771505 edge_4_17_0_0
   + 0.2032712582902707 edge_4_19_0_0 - 0.53879224518225 edge_4_21_0_0
   + 3.951173597206305 edge_4_22_0_0 - 1.216053165189503 edge_5_2_0_0
   - 0.589333052204146 edge_5_3_0_0 + 0.7529764831137219 edge_5_4_0_0
   + 0.5295901789118307 edge_5_6_0_0 - 0.4777487227942183 edge_5_7_0_0
   - 0.1876774996921329 edge_5_9_0_0 - 0.5386883750551882 edge_5_10_0_0
   - 0.5822634533004311 edge_5_16_0_0 - 0.0647999865581667 edge_6_2_0_0
   + 0.6962672080419763 edge_6_3_0_0 + 1.013382240445395 edge_6_4_0_0
   + 3.612120181506765 edge_6_5_0_0 - 0.0958961518500286 edge_6_6_0_0
   + 0.3093512115740121 edge_6_7_0_0 + 2.15171344190692 edge_6_9_0_0
   + 1.564081060669316 edge_6_10_0_0 + 1.35172327005414 edge_6_11_0_0
   + 1.407241866095 edge_6_12_0_0 + 0.0788845013418197 edge_6_13_0_0
   + 0.5637744815030504 edge_6_14_0_0 + 1.121227945102519 edge_6_15_0_0
   + 0.937107153011682 edge_6_16_0_0 - 0.3008886273955255 edge_6_17_0_0
   - 0.7697983581641105 edge_6_18_0_0 + 0.3072198341012199 edge_6_19_0_0
   + 0.037603304463777 edge_6_21_0_0 + 1.272300292288305 edge_6_22_0_0
   - 0.0951434499697182 edge_7_4_0_0 - 0.3821969544717375 edge_7_5_0_0
   + 0.5291271719924885 edge_7_6_0_0 + 1.427961474511625 edge_7_9_0_0
   + 0.4843363963654546 edge_7_10_0_0 + 0.1090224410617219 edge_7_11_0_0
   - 0.1806032600579 edge_7_12_0_0 - 0.5880767936929243 edge_7_13_0_0
   - 1.041350330938366 edge_7_16_0_0 - 1.960979997155833 edge_7_17_0_0
   - 1.256970455256573 edge_7_19_0_0 + 0.047824604665129 edge_8_7_0_0
   - 0.3624073374295443 edge_9_2_0_0 + 0.0811371976436851 edge_9_3_0_0
   + 0.8511964379122194 edge_9_4_0_0 + 0.9178224467581227 edge_9_5_0_0
   + 0.6950332847382897 edge_9_6_0_0 + 3.276898985785966 edge_9_7_0_0
   + 4.008777989287164 edge_9_8_0_0 + 1.825209311313961 edge_9_10_0_0
   + 2.772299332661019 edge_9_11_0_0 + 2.8642368760395 edge_9_12_0_0
   - 0.0850601360675963 edge_9_13_0_0 - 0.4065195084882143 edge_9_14_0_0
   + 1.273830513049766 edge_9_15_0_0 + 0.8284680664107318 edge_9_16_0_0
   - 0.97783412185014 edge_9_17_0_0 - 0.3406354622477694 edge_9_19_0_0
   + 0.1338514446324391 edge_9_21_0_0 + 1.308866048264738 edge_9_22_0_0
   - 1.128199757172145 edge_10_4_0_0 - 0.8794184987749273 edge_10_5_0_0
   - 1.332793621067044 edge_10_6_0_0 - 0.1221526693816862 edge_10_7_0_0
   - 0.4098234662525208 edge_10_9_0_0 + 0.7249146153443542 edge_10_11_0_0
   + 0.22704285693896 edge_10_12_0_0 - 1.428075141724428 edge_11_6_0_0
   - 0.8731070030179389 edge_11_9_0_0 - 0.1984479148727823 edge_11_10_0_0
   - 0.0183551925156046 edge_11_12_0_0 - 0.628633404975188 edge_11_16_0_0
   - 1.003035829435371 edge_11_19_0_0 - 2.256684909052069 edge_12_2_0_0
   - 0.8202780959288 edge_12_3_0_0 - 1.7563520860848 edge_12_5_0_0
   + 0.3378328748845 edge_12_6_0_0 + 0.26325582358224 edge_12_7_0_0
   + 0.84263436964668 edge_12_8_0_0 - 1.453170069146661 edge_12_9_0_0
   - 0.1150531455905 edge_12_10_0_0 - 0.12816558815526 edge_12_11_0_0
   + 0.6479114572217001 edge_12_13_0_0 + 1.1522379893856 edge_12_14_0_0
   + 2.1704498520328 edge_12_15_0_0 + 0.8323000239063536 edge_12_16_0_0
   - 0.0445711182602418 edge_12_17_0_0 + 0.3690732628466776 edge_12_19_0_0
   + 0.8324003612753601 edge_12_21_0_0 + 1.243477699562 edge_12_22_0_0
   - 0.0998563827641207 edge_13_6_0_0 + 0.21139135772195 edge_13_12_0_0
   + 0.9012536090170696 edge_13_14_0_0 + 1.874759839846968 edge_13_15_0_0
   - 0.226024423040509 edge_13_16_0_0 - 0.3500942159234013 edge_13_17_0_0
   + 0.8817331369180005 edge_14_13_0_0 - 2.280979315706049 edge_15_2_0_0
   - 0.2727796964727973 edge_15_3_0_0 - 1.121758348362615 edge_15_4_0_0
   - 0.6786248268016654 edge_15_5_0_0 - 0.00361980951016747 edge_15_6_0_0
   + 0.2349426036727264 edge_15_7_0_0 + 0.1922872864005622 edge_15_8_0_0
   - 0.0929653201143344 edge_15_9_0_0 - 0.5671698791612517 edge_15_10_0_0
   - 0.3161191693510074 edge_15_11_0_0 + 0.44654791962136 edge_15_12_0_0
   + 3.330002650227215 edge_15_13_0_0 + 3.905198196096198 edge_15_14_0_0
   + 0.2237316730922916 edge_15_16_0_0 - 1.616124173927596 edge_15_19_0_0
   - 1.4775197340464 edge_15_21_0_0 + 0.0967682768458347 edge_15_22_0_0
   - 0.7514298021597113 edge_16_2_0_0 + 0.2114013914074976 edge_16_3_0_0
   + 0.1569642888454125 edge_16_4_0_0 + 0.6745553720725634 edge_16_5_0_0
   + 2.246313681705557 edge_16_6_0_0 + 0.1577433117503815 edge_16_7_0_0
   + 1.205874856399264 edge_16_9_0_0 + 0.4194581058734506 edge_16_10_0_0
   + 0.1567686672065205 edge_16_11_0_0 + 1.08492462804 edge_16_12_0_0
   + 0.4575375330439835 edge_16_13_0_0 + 0.754326208414012 edge_16_14_0_0
   + 1.925562644201162 edge_16_15_0_0 + 0.6856110356721107 edge_16_17_0_0
   + 0.2080383902063008 edge_16_18_0_0 + 2.054819719481918 edge_16_19_0_0
   + 1.90612236086429 edge_16_21_0_0 + 2.97591571692933 edge_16_22_0_0
   + 0.4610342396295428 edge_17_16_0_0 - 0.2195151266096556 edge_17_18_0_0
   + 0.4489931831336094 edge_17_19_0_0 + 0.5860313137910306 edge_17_21_0_0
   + 0.1997657433616765 edge_18_17_0_0 - 0.0780486448019422 edge_19_3_0_0
   - 0.738793828361646 edge_19_5_0_0 + 0.4175839152242963 edge_19_6_0_0
   - 0.9602399618266293 edge_19_7_0_0 - 0.6826490488120939 edge_19_11_0_0
   - 0.3254757674476316 edge_19_12_0_0 + 0.0434483976653561 edge_19_13_0_0
   - 0.5570659961133124 edge_19_14_0_0 - 0.0405452826363596 edge_19_15_0_0
   + 0.4864243829756839 edge_19_16_0_0 + 3.162306119565234 edge_19_17_0_0
   + 2.495126503513551 edge_19_18_0_0 + 3.391544569815228 edge_19_21_0_0
   + 1.340556134385263 edge_19_22_0_0 - 1.600779725544594 edge_21_2_0_0
   - 1.3863179174677 edge_21_3_0_0 - 0.027522393936842 edge_21_6_0_0
   - 0.6256743398889909 edge_21_7_0_0 - 0.7064876721090976 edge_21_12_0_0
   - 0.9277644434996221 edge_21_13_0_0 - 0.45410691826074 edge_21_15_0_0
   + 0.4354544385 edge_21_16_0_0 + 2.1528912394038 edge_21_17_0_0
   + 2.9107441204699 edge_21_18_0_0 + 3.156280129986 edge_21_19_0_0
   + 0.98879534739464 edge_21_22_0_0 - 1.418692994725604 edge_22_19_0_0
   - 1.164369901005654 edge_22_21_0_0
Subject To
 one_parent_1: = 1
 consume_one_flow_unit_1: = 1
 one_parent_2: edge_0_2_0_0 + edge_3_2_0_0 + edge_4_2_0_0 + edge_5_2_0_0
   + edge_6_2_0_0 + edge_9_2_0_0 + edge_12_2_0_0 + edge_15_2_0_0
   + edge_16_2_0_0 + edge_21_2_0_0 = 1
 consume_one_flow_unit_2: flow_0_2_0_0 - flow_2_3_0_0 - flow_2_4_0_0
   - flow_2_5_0_0 - flow_2_6_0_0 - flow_2_7_0_0 - flow_2_9_0_0
   - flow_2_10_0_0 - flow_2_11_0_0 - flow_2_12_0_0 - flow_2_16_0_0
   - flow_2_19_0_0 - flow_2_21_0_0 - flow_2_22_0_0 + flow_3_2_0_0
   + flow_4_2_0_0 + flow_5_2_0_0 + flow_6_2_0_0 + flow_9_2_0_0
   + flow_12_2_0_0 + flow_15_2_0_0 + flow_16_2_0_0 + flow_21_2_0_0 = 1
 one_parent_3: edge_0_3_0_0 + edge_2_3_0_0 + edge_3_3_0_0 + edge_4_3_0_0
   + edge_5_3_0_0 + edge_6_3_0_0 + edge_9_3_0_0 + edge_12_3_0_0
   + edge_15_3_0_0 + edge_16_3_0_0 + edge_19_3_0_0 + edge_21_3_0_0 = 1
 consume_one_flow_unit_3: flow_0_3_0_0 + flow_2_3_0_0 - flow_3_2_0_0
   - flow_3_4_0_0 - flow_3_5_0_0 - flow_3_6_0_0 - flow_3_7_0_0
   - flow_3_8_0_0 - flow_3_9_0_0 - flow_3_10_0_0 - flow_3_11_0_0
   - flow_3_12_0_0 - flow_3_13_0_0 - flow_3_14_0_0 - flow_3_15_0_0
   - flow_3_16_0_0 - flow_3_17_0_0 - flow_3_18_0_0 - flow_3_19_0_0
   - flow_3_21_0_0 - flow_3_22_0_0 + flow_4_3_0_0 + flow_5_3_0_0
   + flow_6_3_0_0 + flow_9_3_0_0 + flow_12_3_0_0 + flow_15_3_0_0
   + flow_16_3_0_0 + flow_19_3_0_0 + flow_21_3_0_0 = 1
 one_parent_4: edge_0_4_0_0 + edge_2_4_0_0 + edge_3_4_0_0 + edge_5_4_0_0
   + edge_6_4_0_0 + edge_7_4_0_0 + edge_9_4_0_0 + edge_10_4_0_0
   + edge_15_4_0_0 + edge_16_4_0_0 = 1
 consume_one_flow_unit_4: flow_0_4_0_0 + flow_2_4_0_0 + flow_3_4_0_0
   - flow_4_2_0_0 - flow_4_3_0_0 - flow_4_5_0_0 - flow_4_6_0_0
   - flow_4_7_0_0 - flow_4_8_0_0 - flow_4_9_0_0 - flow_4_10_0_0
   - flow_4_11_0_0 - flow_4_12_0_0 - flow_4_13_0_0 - flow_4_15_0_0
   - flow_4_16_0_0 - flow_4_17_0_0 - flow_4_19_0_0 - flow_4_21_0_0
   - flow_4_22_0_0 + flow_5_4_0_0 + flow_6_4_0_0 + flow_7_4_0_0
   + flow_9_4_0_0 + flow_10_4_0_0 + flow_15_4_0_0 + flow_16_4_0_0 = 1
 one_parent_5: edge_2_5_0_0 + edge_3_5_0_0 + edge_4_5_0_0 + edge_6_5_0_0
   + edge_7_5_0_0 + edge_9_5_0_0 + edge_10_5_0_0 + edge_12_5_0_0
   + edge_15_5_0_0 + edge_16_5_0_0 + edge_19_5_0_0 = 1
 consume_one_flow_unit_5: flow_2_5_0_0 + flow_3_5_0_0 + flow_4_5_0_0
   - flow_5_2_0_0 - flow_5_3_0_0 - flow_5_4_0_0 - flow_5_6_0_0
   - flow_5_7_0_0 - flow_5_9_0_0 - flow_5_10_0_0 - flow_5_16_0_0
   + flow_6_5_0_0 + flow_7_5_0_0 + flow_9_5_0_0 + flow_10_5_0_0
   + flow_12_5_0_0 + flow_15_5_0_0 + flow_16_5_0_0 + flow_19_5_0_0 = 1
 one_parent_6: edge_0_6_0_0 + edge_2_6_0_0 + edge_3_6_0_0 + edge_4_6_0_0
   + edge_5_6_0_0 + edge_6_6_0_0 + edge_7_6_0_0 + edge_9_6_0_0
   + edge_10_6_0_0 + edge_11_6_0_0 + edge_12_6_0_0 + edge_13_6_0_0
   + edge_15_6_0_0 + edge_16_6_0_0 + edge_19_6_0_0 + edge_21_6_0_0 = 1
 consume_one_flow_unit_6: flow_0_6_0_0 + flow_2_6_0_0 + flow_3_6_0_0
   + flow_4_6_0_0 + flow_5_6_0_0 - flow_6_2_0_0 - flow_6_3_0_0
   - flow_6_4_0_0 - flow_6_5_0_0 - flow_6_7_0_0 - flow_6_9_0_0
   - flow_6_10_0_0 - flow_6_11_0_0 - flow_6_12_0_0 - flow_6_13_0_0
   - flow_6_14_0_0 - flow_6_15_0_0 - flow_6_16_0_0 - flow_6_17_0_0
   - flow_6_18_0_0 - flow_6_19_0_0 - flow_6_21_0_0 - flow_6_22_0_0
   + flow_7_6_0_0 + flow_9_6_0_0 + flow_10_6_0_0 + flow_11_6_0_0
   + flow_12_6_0_0 + flow_13_6_0_0 + flow_15_6_0_0 + flow_16_6_0_0
   + flow_19_6_0_0 + flow_21_6_0_0 = 1
 one_parent_7: edge_2_7_0_0 + edge_3_7_0_0 + edge_4_7_0_0 + edge_5_7_0_0
   + edge_6_7_0_0 + edge_8_7_0_0 + edge_9_7_0_0 + edge_10_7_0_0
   + edge_12_7_0_0 + edge_15_7_0_0 + edge_16_7_0_0 + edge_19_7_0_0
   + edge_21_7_0_0 = 1
 consume_one_flow_unit_7: flow_2_7_0_0 + flow_3_7_0_0 + flow_4_7_0_0
   + flow_5_7_0_0 + flow_6_7_0_0 - flow_7_4_0_0 - flow_7_5_0_0
   - flow_7_6_0_0 - flow_7_9_0_0 - flow_7_10_0_0 - flow_7_11_0_0
   - flow_7_12_0_0 - flow_7_13_0_0 - flow_7_16_0_0 - flow_7_17_0_0
   - flow_7_19_0_0 + flow_8_7_0_0 + flow_9_7_0_0 + flow_10_7_0_0
   + flow_12_7_0_0 + flow_15_7_0_0 + flow_16_7_0_0 + flow_19_7_0_0
   + flow_21_7_0_0 = 1
 one_parent_8: edge_3_8_0_0 + edge_4_8_0_0 + edge_9_8_0_0 + edge_12_8_0_0
   + edge_15_8_0_0 = 1
 consume_one_flow_unit_8: flow_3_8_0_0 + flow_4_8_0_0 - flow_8_7_0_0
   + flow_9_8_0_0 + flow_12_8_0_0 + flow_15_8_0_0 = 1
 one_parent_9: edge_0_9_0_0 + edge_2_9_0_0 + edge_3_9_0_0 + edge_4_9_0_0
   + edge_5_9_0_0 + edge_6_9_0_0 + edge_7_9_0_0 + edge_10_9_0_0
   + edge_11_9_0_0 + edge_12_9_0_0 + edge_15_9_0_0 + edge_16_9_0_0 = 1
 consume_one_flow_unit_9: flow_0_9_0_0 + flow_2_9_0_0 + flow_3_9_0_0
   + flow_4_9_0_0 + flow_5_9_0_0 + flow_6_9_0_0 + flow_7_9_0_0
   - flow_9_2_0_0 - flow_9_3_0_0 - flow_9_4_0_0 - flow_9_5_0_0
   - flow_9_6_0_0 - flow_9_7_0_0 - flow_9_8_0_0 - flow_9_10_0_0
   - flow_9_11_0_0 - flow_9_12_0_0 - flow_9_13_0_0 - flow_9_14_0_0
   - flow_9_15_0_0 - flow_9_16_0_0 - flow_9_17_0_0 - flow_9_19_0_0
   - flow_9_21_0_0 - flow_9_22_0_0 + flow_10_9_0_0 + flow_11_9_0_0
   + flow_12_9_0_0 + flow_15_9_0_0 + flow_16_9_0_0 = 1
 one_parent_10: edge_2_10_0_0 + edge_3_10_0_0 + edge_4_10_0_0
   + edge_5_10_0_0 + edge_6_10_0_0 + edge_7_10_0_0 + edge_9_10_0_0
   + edge_11_10_0_0 + edge_12_10_0_0 + edge_15_10_0_0 + edge_16_10_0_0 = 1
 consume_one_flow_unit_10: flow_2_10_0_0 + flow_3_10_0_0 + flow_4_10_0_0
   + flow_5_10_0_0 + flow_6_10_0_0 + flow_7_10_0_0 + flow_9_10_0_0
   - flow_10_4_0_0 - flow_10_5_0_0 - flow_10_6_0_0 - flow_10_7_0_0
   - flow_10_9_0_0 - flow_10_11_0_0 - flow_10_12_0_0 + flow_11_10_0_0
   + flow_12_10_0_0 + flow_15_10_0_0 + flow_16_10_0_0 = 1
 one_parent_11: edge_2_11_0_0 + edge_3_11_0_0 + edge_4_11_0_0
   + edge_6_11_0_0 + edge_7_11_0_0 + edge_9_11_0_0 + edge_10_11_0_0
   + edge_12_11_0_0 + edge_15_11_0_0 + edge_16_11_0_0 + edge_19_11_0_0 = 1
 consume_one_flow_unit_11: flow_2_11_0_0 + flow_3_11_0_0 + flow_4_11_0_0
   + flow_6_11_0_0 + flow_7_11_0_0 + flow_9_11_0_0 + flow_10_11_0_0
   - flow_11_6_0_0 - flow_11_9_0_0 - flow_11_10_0_0 - flow_11_12_0_0
   - flow_11_16_0_0 - flow_11_19_0_0 + flow_12_11_0_0 + flow_15_11_0_0
   + flow_16_11_0_0 + flow_19_11_0_0 = 1
 one_parent_12: edge_2_12_0_0 + edge_3_12_0_0 + edge_4_12_0_0
   + edge_6_12_0_0 + edge_7_12_0_0 + edge_9_12_0_0 + edge_10_12_0_0
   + edge_11_12_0_0 + edge_13_12_0_0 + edge_15_12_0_0 + edge_16_12_0_0
   + edge_19_12_0_0 + edge_21_12_0_0 = 1
 consume_one_flow_unit_12: flow_2_12_0_0 + flow_3_12_0_0 + flow_4_12_0_0
   + flow_6_12_0_0 + flow_7_12_0_0 + flow_9_12_0_0 + flow_10_12_0_0
   + flow_11_12_0_0 - flow_12_2_0_0 - flow_12_3_0_0 - flow_12_5_0_0
   - flow_12_6_0_0 - flow_12_7_0_0 - flow_12_8_0_0 - flow_12_9_0_0
   - flow_12_10_0_0 - flow_12_11_0_0 - flow_12_13_0_0 - flow_12_14_0_0
   - flow_12_15_0_0 - flow_12_16_0_0 - flow_12_17_0_0 - flow_12_19_0_0
   - flow_12_21_0_0 - flow_12_22_0_0 + flow_13_12_0_0 + flow_15_12_0_0
   + flow_16_12_0_0 + flow_19_12_0_0 + flow_21_12_0_0 = 1
 one_parent_13: edge_3_13_0_0 + edge_4_13_0_0 + edge_6_13_0_0
   + edge_7_13_0_0 + edge_9_13_0_0 + edge_12_13_0_0 + edge_14_13_0_0
   + edge_15_13_0_0 + edge_16_13_0_0 + edge_19_13_0_0 + edge_21_13_0_0 = 1
 consume_one_flow_unit_13: flow_3_13_0_0 + flow_4_13_0_0 + flow_6_13_0_0
   + flow_7_13_0_0 + flow_9_13_0_0 + flow_12_13_0_0 - flow_13_6_0_0
   - flow_13_12_0_0 - flow_13_14_0_0 - flow_13_15_0_0 - flow_13_16_0_0
   - flow_13_17_0_0 + flow_14_13_0_0 + flow_15_13_0_0 + flow_16_13_0_0
   + flow_19_13_0_0 + flow_21_13_0_0 = 1
 one_parent_14: edge_3_14_0_0 + edge_6_14_0_0 + edge_9_14_0_0
   + edge_12_14_0_0 + edge_13_14_0_0 + edge_15_14_0_0 + edge_16_14_0_0
   + edge_19_14_0_0 = 1
 consume_one_flow_unit_14: flow_3_14_0_0 + flow_6_14_0_0 + flow_9_14_0_0
   + flow_12_14_0_0 + flow_13_14_0_0 - flow_14_13_0_0 + flow_15_14_0_0
   + flow_16_14_0_0 + flow_19_14_0_0 = 1
 one_parent_15: edge_0_15_0_0 + edge_3_15_0_0 + edge_4_15_0_0
   + edge_6_15_0_0 + edge_9_15_0_0 + edge_12_15_0_0 + edge_13_15_0_0
   + edge_16_15_0_0 + edge_19_15_0_0 + edge_21_15_0_0 = 1
 consume_one_flow_unit_15: flow_0_15_0_0 + flow_3_15_0_0 + flow_4_15_0_0
   + flow_6_15_0_0 + flow_9_15_0_0 + flow_12_15_0_0 + flow_13_15_0_0
   - flow_15_2_0_0 - flow_15_3_0_0 - flow_15_4_0_0 - flow_15_5_0_0
   - flow_15_6_0_0 - flow_15_7_0_0 - flow_15_8_0_0 - flow_15_9_0_0
   - flow_15_10_0_0 - flow_15_11_0_0 - flow_15_12_0_0 - flow_15_13_0_0
   - flow_15_14_0_0 - flow_15_16_0_0 - flow_15_19_0_0 - flow_15_21_0_0
   - flow_15_22_0_0 + flow_16_15_0_0 + flow_19_15_0_0 + flow_21_15_0_0 = 1
 one_parent_16: edge_0_16_0_0 + edge_2_16_0_0 + edge_3_16_0_0
   + edge_4_16_0_0 + edge_5_16_0_0 + edge_6_16_0_0 + edge_7_16_0_0
   + edge_9_16_0_0 + edge_11_16_0_0 + edge_12_16_0_0 + edge_13_16_0_0
   + edge_15_16_0_0 + edge_17_16_0_0 + edge_19_16_0_0 + edge_21_16_0_0 = 1
 consume_one_flow_unit_16: flow_0_16_0_0 + flow_2_16_0_0 + flow_3_16_0_0
   + flow_4_16_0_0 + flow_5_16_0_0 + flow_6_16_0_0 + flow_7_16_0_0
   + flow_9_16_0_0 + flow_11_16_0_0 + flow_12_16_0_0 + flow_13_16_0_0
   + flow_15_16_0_0 - flow_16_2_0_0 - flow_16_3_0_0 - flow_16_4_0_0
   - flow_16_5_0_0 - flow_16_6_0_0 - flow_16_7_0_0 - flow_16_9_0_0
   - flow_16_10_0_0 - flow_16_11_0_0 - flow_16_12_0_0 - flow_16_13_0_0
   - flow_16_14_0_0 - flow_16_15_0_0 - flow_16_17_0_0 - flow_16_18_0_0
   - flow_16_19_0_0 - flow_16_21_0_0 - flow_16_22_0_0 + flow_17_16_0_0
   + flow_19_16_0_0 + flow_21_16_0_0 = 1
 one_parent_17: edge_3_17_0_0 + edge_4_17_0_0 + edge_6_17_0_0
   + edge_7_17_0_0 + edge_9_17_0_0 + edge_12_17_0_0 + edge_13_17_0_0
   + edge_16_17_0_0 + edge_18_17_0_0 + edge_19_17_0_0 + edge_21_17_0_0 = 1
 consume_one_flow_unit_17: flow_3_17_0_0 + flow_4_17_0_0 + flow_6_17_0_0
   + flow_7_17_0_0 + flow_9_17_0_0 + flow_12_17_0_0 + flow_13_17_0_0
   + flow_16_17_0_0 - flow_17_16_0_0 - flow_17_18_0_0 - flow_17_19_0_0
   - flow_17_21_0_0 + flow_18_17_0_0 + flow_19_17_0_0 + flow_21_17_0_0 = 1
 one_parent_18: edge_3_18_0_0 + edge_6_18_0_0 + edge_16_18_0_0
   + edge_17_18_0_0 + edge_19_18_0_0 + edge_21_18_0_0 = 1
 consume_one_flow_unit_18: flow_3_18_0_0 + flow_6_18_0_0 + flow_16_18_0_0
   + flow_17_18_0_0 - flow_18_17_0_0 + flow_19_18_0_0 + flow_21_18_0_0 = 1
 one_parent_19: edge_2_19_0_0 + edge_3_19_0_0 + edge_4_19_0_0
   + edge_6_19_0_0 + edge_7_19_0_0 + edge_9_19_0_0 + edge_11_19_0_0
   + edge_12_19_0_0 + edge_15_19_0_0 + edge_16_19_0_0 + edge_17_19_0_0
   + edge_21_19_0_0 + edge_22_19_0_0 = 1
 consume_one_flow_unit_19: flow_2_19_0_0 + flow_3_19_0_0 + flow_4_19_0_0
   + flow_6_19_0_0 + flow_7_19_0_0 + flow_9_19_0_0 + flow_11_19_0_0
   + flow_12_19_0_0 + flow_15_19_0_0 + flow_16_19_0_0 + flow_17_19_0_0
   - flow_19_3_0_0 - flow_19_5_0_0 - flow_19_6_0_0 - flow_19_7_0_0
   - flow_19_11_0_0 - flow_19_12_0_0 - flow_19_13_0_0 - flow_19_14_0_0
   - flow_19_15_0_0 - flow_19_16_0_0 - flow_19_17_0_0 - flow_19_18_0_0
   - flow_19_21_0_0 - flow_19_22_0_0 + flow_21_19_0_0 + flow_22_19_0_0 = 1
 one_parent_20: = 1
 consume_one_flow_unit_20: = 1
 one_parent_21: edge_2_21_0_0 + edge_3_21_0_0 + edge_4_21_0_0
   + edge_6_21_0_0 + edge_9_21_0_0 + edge_12_21_0_0 + edge_15_21_0_0
   + edge_16_21_0_0 + edge_17_21_0_0 + edge_19_21_0_0 + edge_22_21_0_0 = 1
 consume_one_flow_unit_21: flow_2_21_0_0 + flow_3_21_0_0 + flow_4_21_0_0
   + flow_6_21_0_0 + flow_9_21_0_0 + flow_12_21_0_0 + flow_15_21_0_0
   + flow_16_21_0_0 + flow_17_21_0_0 + flow_19_21_0_0 - flow_21_2_0_0
   - flow_21_3_0_0 - flow_21_6_0_0 - flow_21_7_0_0 - flow_21_12_0_0
   - flow_21_13_0_0 - flow_21_15_0_0 - flow_21_16_0_0 - flow_21_17_0_0
   - flow_21_18_0_0 - flow_21_19_0_0 - flow_21_22_0_0 + flow_22_21_0_0 = 1
 one_parent_22: edge_2_22_0_0 + edge_3_22_0_0 + edge_4_22_0_0
   + edge_6_22_0_0 + edge_9_22_0_0 + edge_12_22_0_0 + edge_15_22_0_0
   + edge_16_22_0_0 + edge_19_22_0_0 + edge_21_22_0_0 = 1
 consume_one_flow_unit_22: flow_2_22_0_0 + flow_3_22_0_0 + flow_4_22_0_0
   + flow_6_22_0_0 + flow_9_22_0_0 + flow_12_22_0_0 + flow_15_22_0_0
   + flow_16_22_0_0 + flow_19_22_0_0 + flow_21_22_0_0 - flow_22_19_0_0
   - flow_22_21_0_0 = 1
 root_flow: flow_0_2_0_0 + flow_0_3_0_0 + flow_0_4_0_0 + flow_0_6_0_0
   + flow_0_9_0_0 + flow_0_15_0_0 + flow_0_16_0_0 = 22
 inactive_no_flow_0_2_0_0: flow_0_2_0_0 - 1000 edge_0_2_0_0 <= 0
 inactive_no_flow_0_3_0_0: flow_0_3_0_0 - 1000 edge_0_3_0_0 <= 0
 inactive_no_flow_0_4_0_0: flow_0_4_0_0 - 1000 edge_0_4_0_0 <= 0
 inactive_no_flow_0_6_0_0: flow_0_6_0_0 - 1000 edge_0_6_0_0 <= 0
 inactive_no_flow_0_9_0_0: flow_0_9_0_0 - 1000 edge_0_9_0_0 <= 0
 inactive_no_flow_0_15_0_0: flow_0_15_0_0 - 1000 edge_0_15_0_0 <= 0
 inactive_no_flow_0_16_0_0: flow_0_16_0_0 - 1000 edge_0_16_0_0 <= 0
 inactive_no_flow_2_3_0_0: flow_2_3_0_0 - 1000 edge_2_3_0_0 <= 0
 inactive_no_flow_2_4_0_0: flow_2_4_0_0 - 1000 edge_2_4_0_0 <= 0
 inactive_no_flow_2_5_0_0: flow_2_5_0_0 - 1000 edge_2_5_0_0 <= 0
 inactive_no_flow_2_6_0_0: flow_2_6_0_0 - 1000 edge_2_6_0_0 <= 0
 inactive_no_flow_2_7_0_0: flow_2_7_0_0 - 1000 edge_2_7_0_0 <= 0
 inactive_no_flow_2_9_0_0: flow_2_9_0_0 - 1000 edge_2_9_0_0 <= 0
 inactive_no_flow_2_10_0_0: flow_2_10_0_0 - 1000 edge_2_10_0_0 <= 0
 inactive_no_flow_2_11_0_0: flow_2_11_0_0 - 1000 edge_2_11_0_0 <= 0
 inactive_no_flow_2_12_0_0: flow_2_12_0_0 - 1000 edge_2_12_0_0 <= 0
 inactive_no_flow_2_16_0_0: flow_2_16_0_0 - 1000 edge_2_16_0_0 <= 0
 inactive_no_flow_2_19_0_0: flow_2_19_0_0 - 1000 edge_2_19_0_0 <= 0
 inactive_no_flow_2_21_0_0: flow_2_21_0_0 - 1000 edge_2_21_0_0 <= 0
 inactive_no_flow_2_22_0_0: flow_2_22_0_0 - 1000 edge_2_22_0_0 <= 0
 inactive_no_flow_3_2_0_0: flow_3_2_0_0 - 1000 edge_3_2_0_0 <= 0
 inactive_no_flow_3_3_0_0: flow_3_3_0_0 - 1000 edge_3_3_0_0 <= 0
 inactive_no_flow_3_4_0_0: flow_3_4_0_0 - 1000 edge_3_4_0_0 <= 0
 inactive_no_flow_3_5_0_0: flow_3_5_0_0 - 1000 edge_3_5_0_0 <= 0
 inactive_no_flow_3_6_0_0: flow_3_6_0_0 - 1000 edge_3_6_0_0 <= 0
 inactive_no_flow_3_7_0_0: flow_3_7_0_0 - 1000 edge_3_7_0_0 <= 0
 inactive_no_flow_3_8_0_0: flow_3_8_0_0 - 1000 edge_3_8_0_0 <= 0
 inactive_no_flow_3_9_0_0: flow_3_9_0_0 - 1000 edge_3_9_0_0 <= 0
 inactive_no_flow_3_10_0_0: flow_3_10_0_0 - 1000 edge_3_10_0_0 <= 0
 inactive_no_flow_3_11_0_0: flow_3_11_0_0 - 1000 edge_3_11_0_0 <= 0
 inactive_no_flow_3_12_0_0: flow_3_12_0_0 - 1000 edge_3_12_0_0 <= 0
 inactive_no_flow_3_13_0_0: flow_3_13_0_0 - 1000 edge_3_13_0_0 <= 0
 inactive_no_flow_3_14_0_0: flow_3_14_0_0 - 1000 edge_3_14_0_0 <= 0
 inactive_no_flow_3_15_0_0: flow_3_15_0_0 - 1000 edge_3_15_0_0 <= 0
 inactive_no_flow_3_16_0_0: flow_3_16_0_0 - 1000 edge_3_16_0_0 <= 0
 inactive_no_flow_3_17_0_0: flow_3_17_0_0 - 1000 edge_3_17_0_0 <= 0
 inactive_no_flow_3_18_0_0: flow_3_18_0_0 - 1000 edge_3_18_0_0 <= 0
 inactive_no_flow_3_19_0_0: flow_3_19_0_0 - 1000 edge_3_19_0_0 <= 0
 inactive_no_flow_3_21_0_0: flow_3_21_0_0 - 1000 edge_3_21_0_0 <= 0
 inactive_no_flow_3_22_0_0: flow_3_22_0_0 - 1000 edge_3_22_0_0 <= 0
 inactive_no_flow_4_2_0_0: flow_4_2_0_0 - 1000 edge_4_2_0_0 <= 0
 inactive_no_flow_4_3_0_0: flow_4_3_0_0 - 1000 edge_4_3_0_0 <= 0
 inactive_no_flow_4_5_0_0: flow_4_5_0_0 - 1000 edge_4_5_0_0 <= 0
 inactive_no_flow_4_6_0_0: flow_4_6_0_0 - 1000 edge_4_6_0_0 <= 0
 inactive_no_flow_4_7_0_0: flow_4_7_0_0 - 1000 edge_4_7_0_0 <= 0
 inactive_no_flow_4_8_0_0: flow_4_8_0_0 - 1000 edge_4_8_0_0 <= 0
 inactive_no_flow_4_9_0_0: flow_4_9_0_0 - 1000 edge_4_9_0_0 <= 0
 inactive_no_flow_4_10_0_0: flow_4_10_0_0 - 1000 edge_4_10_0_0 <= 0
 inactive_no_flow_4_11_0_0: flow_4_11_0_0 - 1000 edge_4_11_0_0 <= 0
 inactive_no_flow_4_12_0_0: flow_4_12_0_0 - 1000 edge_4_12_0_0 <= 0
 inactive_no_flow_4_13_0_0: flow_4_13_0_0 - 1000 edge_4_13_0_0 <= 0
 inactive_no_flow_4_15_0_0: flow_4_15_0_0 - 1000 edge_4_15_0_0 <= 0
 inactive_no_flow_4_16_0_0: flow_4_16_0_0 - 1000 edge_4_16_0_0 <= 0
 inactive_no_flow_4_17_0_0: flow_4_17_0_0 - 1000 edge_4_17_0_0 <= 0
 inactive_no_flow_4_19_0_0: flow_4_19_0_0 - 1000 edge_4_19_0_0 <= 0
 inactive_no_flow_4_21_0_0: flow_4_21_0_0 - 1000 edge_4_21_0_0 <= 0
 inactive_no_flow_4_22_0_0: flow_4_22_0_0 - 1000 edge_4_22_0_0 <= 0
 inactive_no_flow_5_2_0_0: flow_5_2_0_0 - 1000 edge_5_2_0_0 <= 0
 inactive_no_flow_5_3_0_0: flow_5_3_0_0 - 1000 edge_5_3_0_0 <= 0
 inactive_no_flow_5_4_0_0: flow_5_4_0_0 - 1000 edge_5_4_0_0 <= 0
 inactive_no_flow_5_6_0_0: flow_5_6_0_0 - 1000 edge_5_6_0_0 <= 0
 inactive_no_flow_5_7_0_0: flow_5_7_0_0 - 1000 edge_5_7_0_0 <= 0
 inactive_no_flow_5_9_0_0: flow_5_9_0_0 - 1000 edge_5_9_0_0 <= 0
 inactive_no_flow_5_10_0_0: flow_5_10_0_0 - 1000 edge_5_10_0_0 <= 0
 inactive_no_flow_5_16_0_0: flow_5_16_0_0 - 1000 edge_5_16_0_0 <= 0
 inactive_no_flow_6_2_0_0: flow_6_2_0_0 - 1000 edge_6_2_0_0 <= 0
 inactive_no_flow_6_3_0_0: flow_6_3_0_0 - 1000 edge_6_3_0_0 <= 0
 inactive_no_flow_6_4_0_0: flow_6_4_0_0 - 1000 edge_6_4_0_0 <= 0
 inactive_no_flow_6_5_0_0: flow_6_5_0_0 - 1000 edge_6_5_0_0 <= 0
 inactive_no_flow_6_6_0_0: flow_6_6_0_0 - 1000 edge_6_6_0_0 <= 0
 inactive_no_flow_6_7_0_0: flow_6_7_0_0 - 1000 edge_6_7_0_0 <= 0
 inactive_no_flow_6_9_0_0: flow_6_9_0_0 - 1000 edge_6_9_0_0 <= 0
 inactive_no_flow_6_10_0_0: flow_6_10_0_0 - 1000 edge_6_10_0_0 <= 0
 inactive_no_flow_6_11_0_0: flow_6_11_0_0 - 1000 edge_6_11_0_0 <= 0
 inactive_no_flow_6_12_0_0: flow_6_12_0_0 - 1000 edge_6_12_0_0 <= 0
 inactive_no_flow_6_13_0_0: flow_6_13_0_0 - 1000 edge_6_13_0_0 <= 0
 inactive_no_flow_6_14_0_0: flow_6_14_0_0 - 1000 edge_6_14_0_0 <= 0
 inactive_no_flow_6_15_0_0: flow_6_15_0_0 - 1000 edge_6_15_0_0 <= 0
 inactive_no_flow_6_16_0_0: flow_6_16_0_0 - 1000 edge_6_16_0_0 <= 0
 inactive_no_flow_6_17_0_0: flow_6_17_0_0 - 1000 edge_6_17_0_0 <= 0
 inactive_no_flow_6_18_0_0: flow_6_18_0_0 - 1000 edge_6_18_0_0 <= 0
 inactive_no_flow_6_19_0_0: flow_6_19_0_0 - 1000 edge_6_19_0_0 <= 0
 inactive_no_flow_6_21_0_0: flow_6_21_0_0 - 1000 edge_6_21_0_0 <= 0
 inactive_no_flow_6_22_0_0: flow_6_22_0_0 - 1000 edge_6_22_0_0 <= 0
 inactive_no_flow_7_4_0_0: flow_7_4_0_0 - 1000 edge_7_4_0_0 <= 0
 inactive_no_flow_7_5_0_0: flow_7_5_0_0 - 1000 edge_7_5_0_0 <= 0
 inactive_no_flow_7_6_0_0: flow_7_6_0_0 - 1000 edge_7_6_0_0 <= 0
 inactive_no_flow_7_9_0_0: flow_7_9_0_0 - 1000 edge_7_9_0_0 <= 0
 inactive_no_flow_7_10_0_0: flow_7_10_0_0 - 1000 edge_7_10_0_0 <= 0
 inactive_no_flow_7_11_0_0: flow_7_11_0_0 - 1000 edge_7_11_0_0 <= 0
 inactive_no_flow_7_12_0_0: flow_7_12_0_0 - 1000 edge_7_12_0_0 <= 0
 inactive_no_flow_7_13_0_0: flow_7_13_0_0 - 1000 edge_7_13_0_0 <= 0
 inactive_no_flow_7_16_0_0: flow_7_16_0_0 - 1000 edge_7_16_0_0 <= 0
 inactive_no_flow_7_17_0_0: flow_7_17_0_0 - 1000 edge_7_17_0_0 <= 0
 inactive_no_flow_7_19_0_0: flow_7_19_0_0 - 1000 edge_7_19_0_0 <= 0
 inactive_no_flow_8_7_0_0: flow_8_7_0_0 - 1000 edge_8_7_0_0 <= 0
 inactive_no_flow_9_2_0_0: flow_9_2_0_0 - 1000 edge_9_2_0_0 <= 0
 inactive_no_flow_9_3_0_0: flow_9_3_0_0 - 1000 edge_9_3_0_0 <= 0
 inactive_no_flow_9_4_0_0: flow_9_4_0_0 - 1000 edge_9_4_0_0 <= 0
 inactive_no_flow_9_5_0_0: flow_9_5_0_0 - 1000 edge_9_5_0_0 <= 0
 inactive_no_flow_9_6_0_0: flow_9_6_0_0 - 1000 edge_9_6_0_0 <= 0
 inactive_no_flow_9_7_0_0: flow_9_7_0_0 - 1000 edge_9_7_0_0 <= 0
 inactive_no_flow_9_8_0_0: flow_9_8_0_0 - 1000 edge_9_8_0_0 <= 0
 inactive_no_flow_9_10_0_0: flow_9_10_0_0 - 1000 edge_9_10_0_0 <= 0
 inactive_no_flow_9_11_0_0: flow_9_11_0_0 - 1000 edge_9_11_0_0 <= 0
 inactive_no_flow_9_12_0_0: flow_9_12_0_0 - 1000 edge_9_12_0_0 <= 0
 inactive_no_flow_9_13_0_0: flow_9_13_0_0 - 1000 edge_9_13_0_0 <= 0
 inactive_no_flow_9_14_0_0: flow_9_14_0_0 - 1000 edge_9_14_0_0 <= 0
 inactive_no_flow_9_15_0_0: flow_9_15_0_0 - 1000 edge_9_15_0_0 <= 0
 inactive_no_flow_9_16_0_0: flow_9_16_0_0 - 1000 edge_9_16_0_0 <= 0
 inactive_no_flow_9_17_0_0: flow_9_17_0_0 - 1000 edge_9_17_0_0 <= 0
 inactive_no_flow_9_19_0_0: flow_9_19_0_0 - 1000 edge_9_19_0_0 <= 0
 inactive_no_flow_9_21_0_0: flow_9_21_0_0 - 1000 edge_9_21_0_0 <= 0
 inactive_no_flow_9_22_0_0: flow_9_22_0_0 - 1000 edge_9_22_0_0 <= 0
 inactive_no_flow_10_4_0_0: flow_10_4_0_0 - 1000 edge_10_4_0_0 <= 0
 inactive_no_flow_10_5_0_0: flow_10_5_0_0 - 1000 edge_10_5_0_0 <= 0
 inactive_no_flow_10_6_0_0: flow_10_6_0_0 - 1000 edge_10_6_0_0 <= 0
 inactive_no_flow_10_7_0_0: flow_10_7_0_0 - 1000 edge_10_7_0_0 <= 0
 inactive_no_flow_10_9_0_0: flow_10_9_0_0 - 1000 edge_10_9_0_0 <= 0
 inactive_no_flow_10_11_0_0: flow_10_11_0_0 - 1000 edge_10_11_0_0 <= 0
 inactive_no_flow_10_12_0_0: flow_10_12_0_0 - 1000 edge_10_12_0_0 <= 0
 inactive_no_flow_11_6_0_0: flow_11_6_0_0 - 1000 edge_11_6_0_0 <= 0
 inactive_no_flow_11_9_0_0: flow_11_9_0_0 - 1000 edge_11_9_0_0 <= 0
 inactive_no_flow_11_10_0_0: flow_11_10_0_0 - 1000 edge_11_10_0_0 <= 0
 inactive_no_flow_11_12_0_0: flow_11_12_0_0 - 1000 edge_11_12_0_0 <= 0
 inactive_no_flow_11_16_0_0: flow_11_16_0_0 - 1000 edge_11_16_0_0 <= 0
 inactive_no_flow_11_19_0_0: flow_11_19_0_0 - 1000 edge_11_19_0_0 <= 0
 inactive_no_flow_12_2_0_0: flow_12_2_0_0 - 1000 edge_12_2_0_0 <= 0
 inactive_no_flow_12_3_0_0: flow_12_3_0_0 - 1000 edge_12_3_0_0 <= 0
 inactive_no_flow_12_5_0_0: flow_12_5_0_0 - 1000 edge_12_5_0_0 <= 0
 inactive_no_flow_12_6_0_0: flow_12_6_0_0 - 1000 edge_12_6_0_0 <= 0
 inactive_no_flow_12_7_0_0: flow_12_7_0_0 - 1000 edge_12_7_0_0 <= 0
 inactive_no_flow_12_8_0_0: flow_12_8_0_0 - 1000 edge_12_8_0_0 <= 0
 inactive_no_flow_12_9_0_0: flow_12_9_0_0 - 1000 edge_12_9_0_0 <= 0
 inactive_no_flow_12_10_0_0: flow_12_10_0_0 - 1000 edge_12_10_0_0 <= 0
 inactive_no_flow_12_11_0_0: flow_12_11_0_0 - 1000 edge_12_11_0_0 <= 0
 inactive_no_flow_12_13_0_0: flow_12_13_0_0 - 1000 edge_12_13_0_0 <= 0
 inactive_no_flow_12_14_0_0: flow_12_14_0_0 - 1000 edge_12_14_0_0 <= 0
 inactive_no_flow_12_15_0_0: flow_12_15_0_0 - 1000 edge_12_15_0_0 <= 0
 inactive_no_flow_12_16_0_0: flow_12_16_0_0 - 1000 edge_12_16_0_0 <= 0
 inactive_no_flow_12_17_0_0: flow_12_17_0_0 - 1000 edge_12_17_0_0 <= 0
 inactive_no_flow_12_19_0_0: flow_12_19_0_0 - 1000 edge_12_19_0_0 <= 0
 inactive_no_flow_12_21_0_0: flow_12_21_0_0 - 1000 edge_12_21_0_0 <= 0
 inactive_no_flow_12_22_0_0: flow_12_22_0_0 - 1000 edge_12_22_0_0 <= 0
 inactive_no_flow_13_6_0_0: flow_13_6_0_0 - 1000 edge_13_6_0_0 <= 0
 inactive_no_flow_13_12_0_0: flow_13_12_0_0 - 1000 edge_13_12_0_0 <= 0
 inactive_no_flow_13_14_0_0: flow_13_14_0_0 - 1000 edge_13_14_0_0 <= 0
 inactive_no_flow_13_15_0_0: flow_13_15_0_0 - 1000 edge_13_15_0_0 <= 0
 inactive_no_flow_13_16_0_0: flow_13_16_0_0 - 1000 edge_13_16_0_0 <= 0
 inactive_no_flow_13_17_0_0: flow_13_17_0_0 - 1000 edge_13_17_0_0 <= 0
 inactive_no_flow_14_13_0_0: flow_14_13_0_0 - 1000 edge_14_13_0_0 <= 0
 inactive_no_flow_15_2_0_0: flow_15_2_0_0 - 1000 edge_15_2_0_0 <= 0
 inactive_no_flow_15_3_0_0: flow_15_3_0_0 - 1000 edge_15_3_0_0 <= 0
 inactive_no_flow_15_4_0_0: flow_15_4_0_0 - 1000 edge_15_4_0_0 <= 0
 inactive_no_flow_15_5_0_0: flow_15_5_0_0 - 1000 edge_15_5_0_0 <= 0
 inactive_no_flow_15_6_0_0: flow_15_6_0_0 - 1000 edge_15_6_0_0 <= 0
 inactive_no_flow_15_7_0_0: flow_15_7_0_0 - 1000 edge_15_7_0_0 <= 0
 inactive_no_flow_15_8_0_0: flow_15_8_0_0 - 1000 edge_15_8_0_0 <= 0
 inactive_no_flow_15_9_0_0: flow_15_9_0_0 - 1000 edge_15_9_0_0 <= 0
 inactive_no_flow_15_10_0_0: flow_15_10_0_0 - 1000 edge_15_10_0_0 <= 0
 inactive_no_flow_15_11_0_0: flow_15_11_0_0 - 1000 edge_15_11_0_0 <= 0
 inactive_no_flow_15_12_0_0: flow_15_12_0_0 - 1000 edge_15_12_0_0 <= 0
 inactive_no_flow_15_13_0_0: flow_15_13_0_0 - 1000 edge_15_13_0_0 <= 0
 inactive_no_flow_15_14_0_0: flow_15_14_0_0 - 1000 edge_15_14_0_0 <= 0
 inactive_no_flow_15_16_0_0: flow_15_16_0_0 - 1000 edge_15_16_0_0 <= 0
 inactive_no_flow_15_19_0_0: flow_15_19_0_0 - 1000 edge_15_19_0_0 <= 0
 inactive_no_flow_15_21_0_0: flow_15_21_0_0 - 1000 edge_15_21_0_0 <= 0
 inactive_no_flow_15_22_0_0: flow_15_22_0_0 - 1000 edge_15_22_0_0 <= 0
 inactive_no_flow_16_2_0_0: flow_16_2_0_0 - 1000 edge_16_2_0_0 <= 0
 inactive_no_flow_16_3_0_0: flow_16_3_0_0 - 1000 edge_16_3_0_0 <= 0
 inactive_no_flow_16_4_0_0: flow_16_4_0_0 - 1000 edge_16_4_0_0 <= 0
 inactive_no_flow_16_5_0_0: flow_16_5_0_0 - 1000 edge_16_5_0_0 <= 0
 inactive_no_flow_16_6_0_0: flow_16_6_0_0 - 1000 edge_16_6_0_0 <= 0
 inactive_no_flow_16_7_0_0: flow_16_7_0_0 - 1000 edge_16_7_0_0 <= 0
 inactive_no_flow_16_9_0_0: flow_16_9_0_0 - 1000 edge_16_9_0_0 <= 0
 inactive_no_flow_16_10_0_0: flow_16_10_0_0 - 1000 edge_16_10_0_0 <= 0
 inactive_no_flow_16_11_0_0: flow_16_11_0_0 - 1000 edge_16_11_0_0 <= 0
 inactive_no_flow_16_12_0_0: flow_16_12_0_0 - 1000 edge_16_12_0_0 <= 0
 inactive_no_flow_16_13_0_0: flow_16_13_0_0 - 1000 edge_16_13_0_0 <= 0
 inactive_no_flow_16_14_0_0: flow_16_14_0_0 - 1000 edge_16_14_0_0 <= 0
 inactive_no_flow_16_15_0_0: flow_16_15_0_0 - 1000 edge_16_15_0_0 <= 0
 inactive_no_flow_16_17_0_0: flow_16_17_0_0 - 1000 edge_16_17_0_0 <= 0
 inactive_no_flow_16_18_0_0: flow_16_18_0_0 - 1000 edge_16_18_0_0 <= 0
 inactive_no_flow_16_19_0_0: flow_16_19_0_0 - 1000 edge_16_19_0_0 <= 0
 inactive_no_flow_16_21_0_0: flow_16_21_0_0 - 1000 edge_16_21_0_0 <= 0
 inactive_no_flow_16_22_0_0: flow_16_22_0_0 - 1000 edge_16_22_0_0 <= 0
 inactive_no_flow_17_16_0_0: flow_17_16_0_0 - 1000 edge_17_16_0_0 <= 0
 inactive_no_flow_17_18_0_0: flow_17_18_0_0 - 1000 edge_17_18_0_0 <= 0
 inactive_no_flow_17_19_0_0: flow_17_19_0_0 - 1000 edge_17_19_0_0 <= 0
 inactive_no_flow_17_21_0_0: flow_17_21_0_0 - 1000 edge_17_21_0_0 <= 0
 inactive_no_flow_18_17_0_0: flow_18_17_0_0 - 1000 edge_18_17_0_0 <= 0
 inactive_no_flow_19_3_0_0: flow_19_3_0_0 - 1000 edge_19_3_0_0 <= 0
 inactive_no_flow_19_5_0_0: flow_19_5_0_0 - 1000 edge_19_5_0_0 <= 0
 inactive_no_flow_19_6_0_0: flow_19_6_0_0 - 1000 edge_19_6_0_0 <= 0
 inactive_no_flow_19_7_0_0: flow_19_7_0_0 - 1000 edge_19_7_0_0 <= 0
 inactive_no_flow_19_11_0_0: flow_19_11_0_0 - 1000 edge_19_11_0_0 <= 0
 inactive_no_flow_19_12_0_0: flow_19_12_0_0 - 1000 edge_19_12_0_0 <= 0
 inactive_no_flow_19_13_0_0: flow_19_13_0_0 - 1000 edge_19_13_0_0 <= 0
 inactive_no_flow_19_14_0_0: flow_19_14_0_0 - 1000 edge_19_14_0_0 <= 0
 inactive_no_flow_19_15_0_0: flow_19_15_0_0 - 1000 edge_19_15_0_0 <= 0
 inactive_no_flow_19_16_0_0: flow_19_16_0_0 - 1000 edge_19_16_0_0 <= 0
 inactive_no_flow_19_17_0_0: flow_19_17_0_0 - 1000 edge_19_17_0_0 <= 0
 inactive_no_flow_19_18_0_0: flow_19_18_0_0 - 1000 edge_19_18_0_0 <= 0
 inactive_no_flow_19_21_0_0: flow_19_21_0_0 - 1000 edge_19_21_0_0 <= 0
 inactive_no_flow_19_22_0_0: flow_19_22_0_0 - 1000 edge_19_22_0_0 <= 0
 inactive_no_flow_21_2_0_0: flow_21_2_0_0 - 1000 edge_21_2_0_0 <= 0
 inactive_no_flow_21_3_0_0: flow_21_3_0_0 - 1000 edge_21_3_0_0 <= 0
 inactive_no_flow_21_6_0_0: flow_21_6_0_0 - 1000 edge_21_6_0_0 <= 0
 inactive_no_flow_21_7_0_0: flow_21_7_0_0 - 1000 edge_21_7_0_0 <= 0
 inactive_no_flow_21_12_0_0: flow_21_12_0_0 - 1000 edge_21_12_0_0 <= 0
 inactive_no_flow_21_13_0_0: flow_21_13_0_0 - 1000 edge_21_13_0_0 <= 0
 inactive_no_flow_21_15_0_0: flow_21_15_0_0 - 1000 edge_21_15_0_0 <= 0
 inactive_no_flow_21_16_0_0: flow_21_16_0_0 - 1000 edge_21_16_0_0 <= 0
 inactive_no_flow_21_17_0_0: flow_21_17_0_0 - 1000 edge_21_17_0_0 <= 0
 inactive_no_flow_21_18_0_0: flow_21_18_0_0 - 1000 edge_21_18_0_0 <= 0
 inactive_no_flow_21_19_0_0: flow_21_19_0_0 - 1000 edge_21_19_0_0 <= 0
 inactive_no_flow_21_22_0_0: flow_21_22_0_0 - 1000 edge_21_22_0_0 <= 0
 inactive_no_flow_22_19_0_0: flow_22_19_0_0 - 1000 edge_22_19_0_0 <= 0
 inactive_no_flow_22_21_0_0: flow_22_21_0_0 - 1000 edge_22_21_0_0 <= 0
Bounds
Binaries
 edge_0_2_0_0 edge_0_3_0_0 edge_0_4_0_0 edge_0_6_0_0 edge_0_9_0_0
 edge_0_15_0_0 edge_0_16_0_0 edge_2_3_0_0 edge_2_4_0_0 edge_2_5_0_0
 edge_2_6_0_0 edge_2_7_0_0 edge_2_9_0_0 edge_2_10_0_0 edge_2_11_0_0
 edge_2_12_0_0 edge_2_16_0_0 edge_2_19_0_0 edge_2_21_0_0 edge_2_22_0_0
 edge_3_2_0_0 edge_3_3_0_0 edge_3_4_0_0 edge_3_5_0_0 edge_3_6_0_0
 edge_3_7_0_0 edge_3_8_0_0 edge_3_9_0_0 edge_3_10_0_0 edge_3_11_0_0
 edge_3_12_0_0 edge_3_13_0_0 edge_3_14_0_0 edge_3_15_0_0 edge_3_16_0_0
 edge_3_17_0_0 edge_3_18_0_0 edge_3_19_0_0 edge_3_21_0_0 edge_3_22_0_0
 edge_4_2_0_0 edge_4_3_0_0 edge_4_5_0_0 edge_4_6_0_0 edge_4_7_0_0
 edge_4_8_0_0 edge_4_9_0_0 edge_4_10_0_0 edge_4_11_0_0 edge_4_12_0_0
 edge_4_13_0_0 edge_4_15_0_0 edge_4_16_0_0 edge_4_17_0_0 edge_4_19_0_0
 edge_4_21_0_0 edge_4_22_0_0 edge_5_2_0_0 edge_5_3_0_0 edge_5_4_0_0
 edge_5_6_0_0 edge_5_7_0_0 edge_5_9_0_0 edge_5_10_0_0 edge_5_16_0_0
 edge_6_2_0_0 edge_6_3_0_0 edge_6_4_0_0 edge_6_5_0_0 edge_6_6_0_0
 edge_6_7_0_0 edge_6_9_0_0 edge_6_10_0_0 edge_6_11_0_0 edge_6_12_0_0
 edge_6_13_0_0 edge_6_14_0_0 edge_6_15_0_0 edge_6_16_0_0 edge_6_17_0_0
 edge_6_18_0_0 edge_6_19_0_0 edge_6_21_0_0 edge_6_22_0_0 edge_7_4_0_0
 edge_7_5_0_0 edge_7_6_0_0 edge_7_9_0_0 edge_7_10_0_0 edge_7_11_0_0
 edge_7_12_0_0 edge_7_13_0_0 edge_7_16_0_0 edge_7_17_0_0 edge_7_19_0_0
 edge_8_7_0_0 edge_9_2_0_0 edge_9_3_0_0 edge_9_4_0_0 edge_9_5_0_0
 edge_9_6_0_0 edge_9_7_0_0 edge_9_8_0_0 edge_9_10_0_0 edge_9_11_0_0
 edge_9_12_0_0 edge_9_13_0_0 edge_9_14_0_0 edge_9_15_0_0 edge_9_16_0_0
 edge_9_17_0_0 edge_9_19_0_0 edge_9_21_0_0 edge_9_22_0_0 edge_10_4_0_0
 edge_10_5_0_0 edge_10_6_0_0 edge_10_7_0_0 edge_10_9_0_0 edge_10_11_0_0
 edge_10_12_0_0 edge_11_6_0_0 edge_11_9_0_0 edge_11_10_0_0 edge_11_12_0_0
 edge_11_16_0_0 edge_11_19_0_0 edge_12_2_0_0 edge_12_3_0_0 edge_12_5_0_0
 edge_12_6_0_0 edge_12_7_0_0 edge_12_8_0_0 edge_12_9_0_0 edge_12_10_0_0
 edge_12_11_0_0 edge_12_13_0_0 edge_12_14_0_0 edge_12_15_0_0 edge_12_16_0_0
 edge_12_17_0_0 edge_12_19_0_0 edge_12_21_0_0 edge_12_22_0_0 edge_13_6_0_0
 edge_13_12_0_0 edge_13_14_0_0 edge_13_15_0_0 edge_13_16_0_0 edge_13_17_0_0
 edge_14_13_0_0 edge_15_2_0_0 edge_15_3_0_0 edge_15_4_0_0 edge_15_5_0_0
 edge_15_6_0_0 edge_15_7_0_0 edge_15_8_0_0 edge_15_9_0_0 edge_15_10_0_0
 edge_15_11_0_0 edge_15_12_0_0 edge_15_13_0_0 edge_15_14_0_0 edge_15_16_0_0
 edge_15_19_0_0 edge_15_21_0_0 edge_15_22_0_0 edge_16_2_0_0 edge_16_3_0_0
 edge_16_4_0_0 edge_16_5_0_0 edge_16_6_0_0 edge_16_7_0_0 edge_16_9_0_0
 edge_16_10_0_0 edge_16_11_0_0 edge_16_12_0_0 edge_16_13_0_0 edge_16_14_0_0
 edge_16_15_0_0 edge_16_17_0_0 edge_16_18_0_0 edge_16_19_0_0 edge_16_21_0_0
 edge_16_22_0_0 edge_17_16_0_0 edge_17_18_0_0 edge_17_19_0_0 edge_17_21_0_0
 edge_18_17_0_0 edge_19_3_0_0 edge_19_5_0_0 edge_19_6_0_0 edge_19_7_0_0
 edge_19_11_0_0 edge_19_12_0_0 edge_19_13_0_0 edge_19_14_0_0 edge_19_15_0_0
 edge_19_16_0_0 edge_19_17_0_0 edge_19_18_0_0 edge_19_21_0_0 edge_19_22_0_0
 edge_21_2_0_0 edge_21_3_0_0 edge_21_6_0_0 edge_21_7_0_0 edge_21_12_0_0
 edge_21_13_0_0 edge_21_15_0_0 edge_21_16_0_0 edge_21_17_0_0 edge_21_18_0_0
 edge_21_19_0_0 edge_21_22_0_0 edge_22_19_0_0 edge_22_21_0_0
End
